<instance format="XCSP3" type="CSP">
  <variables>
    <array id="x" size="[6][6]"> 1..36 </array>
  </variables>
  <constraints>
    <allDifferent> x[][] </allDifferent>
    <group class="rows">
      <sum>
        <list> %... </list>
        <condition> (eq,111) </condition>
      </sum>
      <args> x[0][] </args>
      <args> x[1][] </args>
      <args> x[2][] </args>
      <args> x[3][] </args>
      <args> x[4][] </args>
      <args> x[5][] </args>
    </group>
    <group class="columns">
      <sum>
        <list> %... </list>
        <condition> (eq,111) </condition>
      </sum>
      <args> x[][0] </args>
      <args> x[][1] </args>
      <args> x[][2] </args>
      <args> x[][3] </args>
      <args> x[][4] </args>
      <args> x[][5] </args>
    </group>
    <group class="diagonals">
      <sum>
        <list> %... </list>
        <condition> (eq,111) </condition>
      </sum>
      <args> x[0][0] x[1][1] x[2][2] x[3][3] x[4][4] x[5][5] </args>
      <args> x[0][5] x[1][4] x[2][3] x[3][2] x[4][1] x[5][0] </args>
    </group>
  </constraints>
</instance>
